K = 2;
capacity =
  [60, 40, 45, 34, 60, 33, 34, 60];
  
N = 12;
nStudents = [300, 150, 250, 300, 200, 150, 200, 250, 190, 220, 250, 100];
year = [1,2,3,2,3,2,1,1,3,2,3,1];

D = 3;
department = [1,2,3,3,2,2,3,1,3,1,2,3];

requiredTime = [40, 55, 50, 45, 45, 55, 55, 40, 40, 50, 55, 45];